DIMENSION :11
NODE_COORD_SECTION
1 -96.37103469283863 52.333294882906586
2 -96.49840341931673 88.08665902071687
3 46.24313521784529 -76.15186179350388
4 78.2557045702896 -64.82343422117253
5 -54.06424285362246 -94.44893870971896
6 58.128685029245446 -57.47066309298705
7 81.93527701729377 70.2501972483079
8 39.6748944944093 -1.510772432138367
9 63.73026195344565 39.824306168251496
10 -92.09087321215125 -61.908599868485695
11 -8.913992327806739 -83.00038025413461
EOF
